242
500
400	3
397	4
396	1
395	2
393	1
391	2
390	1
389	2
386	1
385	1
384	1
382	1
381	2
380	4
379	2
378	4
377	2
376	1
375	2
374	2
373	1
372	2
371	4
370	1
369	1
368	1
367	3
366	1
365	2
364	3
363	1
362	5
360	2
359	1
357	6
356	2
355	2
354	3
353	1
352	2
350	1
348	1
347	4
345	3
343	1
342	2
341	1
340	1
339	1
338	4
337	1
336	2
335	5
334	1
333	2
332	4
331	1
328	3
327	2
326	2
325	1
324	3
323	2
322	3
320	2
319	3
318	3
316	3
315	2
314	3
313	1
312	3
311	3
310	1
309	3
308	1
307	3
306	1
305	2
304	3
303	1
302	2
301	1
300	4
299	2
298	1
297	1
296	1
295	3
294	1
293	2
292	1
289	1
288	3
287	2
286	3
285	1
283	1
282	3
281	2
279	3
277	2
276	4
273	2
272	3
270	2
269	1
268	1
267	3
266	3
265	1
264	1
260	3
259	3
258	2
257	1
255	2
254	5
253	3
252	1
251	1
250	2
249	4
248	3
247	3
246	1
245	2
244	3
242	1
240	5
239	1
236	1
235	2
234	2
233	2
231	1
230	1
229	1
228	2
227	1
226	1
225	2
224	5
223	1
222	1
221	3
220	3
217	3
214	1
213	1
212	6
210	1
209	2
208	1
207	1
206	2
204	1
202	1
201	4
200	2
199	2
197	1
196	1
195	2
194	3
193	1
192	1
191	1
190	2
189	1
187	4
186	1
183	2
182	1
181	5
180	2
179	1
178	1
177	1
176	2
175	3
174	1
173	1
172	1
169	3
167	3
166	3
164	1
163	1
161	2
160	2
159	1
158	1
157	1
155	3
154	3
153	3
152	3
151	1
149	3
147	2
145	2
144	2
143	6
142	2
141	4
140	1
139	2
138	1
137	1
136	3
135	2
134	1
133	1
132	3
130	3
129	2
128	1
127	2
126	1
125	2
124	2
123	4
122	3
121	1
120	4
119	2
117	2
116	2
115	2
114	2
112	4
111	1
110	1
108	3
107	2
106	1
104	1
103	2
102	2
101	2
100	4
